p cnf 513 864
53 54 1 82 83 0
53 54 1 82 -83 0
53 54 1 -82 83 0
53 54 1 -82 -83 0
-53 -54 1 84 85 0
-53 -54 1 84 -85 0
-53 -54 1 -84 85 0
-53 -54 1 -84 -85 0
53 -54 -1 86 87 0
53 -54 -1 86 -87 0
53 -54 -1 -86 87 0
53 -54 -1 -86 -87 0
-53 54 -1 88 89 0
-53 54 -1 88 -89 0
-53 54 -1 -88 89 0
-53 54 -1 -88 -89 0
1 55 2 90 91 0
1 55 2 90 -91 0
1 55 2 -90 91 0
1 55 2 -90 -91 0
-1 -55 2 92 93 0
-1 -55 2 92 -93 0
-1 -55 2 -92 93 0
-1 -55 2 -92 -93 0
1 -55 -2 94 95 0
1 -55 -2 94 -95 0
1 -55 -2 -94 95 0
1 -55 -2 -94 -95 0
-1 55 -2 96 97 0
-1 55 -2 96 -97 0
-1 55 -2 -96 97 0
-1 55 -2 -96 -97 0
2 56 3 98 99 0
2 56 3 98 -99 0
2 56 3 -98 99 0
2 56 3 -98 -99 0
-2 -56 3 100 101 0
-2 -56 3 100 -101 0
-2 -56 3 -100 101 0
-2 -56 3 -100 -101 0
2 -56 -3 102 103 0
2 -56 -3 102 -103 0
2 -56 -3 -102 103 0
2 -56 -3 -102 -103 0
-2 56 -3 104 105 0
-2 56 -3 104 -105 0
-2 56 -3 -104 105 0
-2 56 -3 -104 -105 0
3 57 4 106 107 0
3 57 4 106 -107 0
3 57 4 -106 107 0
3 57 4 -106 -107 0
-3 -57 4 108 109 0
-3 -57 4 108 -109 0
-3 -57 4 -108 109 0
-3 -57 4 -108 -109 0
3 -57 -4 110 111 0
3 -57 -4 110 -111 0
3 -57 -4 -110 111 0
3 -57 -4 -110 -111 0
-3 57 -4 112 113 0
-3 57 -4 112 -113 0
-3 57 -4 -112 113 0
-3 57 -4 -112 -113 0
4 58 5 114 115 0
4 58 5 114 -115 0
4 58 5 -114 115 0
4 58 5 -114 -115 0
-4 -58 5 116 117 0
-4 -58 5 116 -117 0
-4 -58 5 -116 117 0
-4 -58 5 -116 -117 0
4 -58 -5 118 119 0
4 -58 -5 118 -119 0
4 -58 -5 -118 119 0
4 -58 -5 -118 -119 0
-4 58 -5 120 121 0
-4 58 -5 120 -121 0
-4 58 -5 -120 121 0
-4 58 -5 -120 -121 0
5 59 6 122 123 0
5 59 6 122 -123 0
5 59 6 -122 123 0
5 59 6 -122 -123 0
-5 -59 6 124 125 0
-5 -59 6 124 -125 0
-5 -59 6 -124 125 0
-5 -59 6 -124 -125 0
5 -59 -6 126 127 0
5 -59 -6 126 -127 0
5 -59 -6 -126 127 0
5 -59 -6 -126 -127 0
-5 59 -6 128 129 0
-5 59 -6 128 -129 0
-5 59 -6 -128 129 0
-5 59 -6 -128 -129 0
6 60 7 130 131 0
6 60 7 130 -131 0
6 60 7 -130 131 0
6 60 7 -130 -131 0
-6 -60 7 132 133 0
-6 -60 7 132 -133 0
-6 -60 7 -132 133 0
-6 -60 7 -132 -133 0
6 -60 -7 134 135 0
6 -60 -7 134 -135 0
6 -60 -7 -134 135 0
6 -60 -7 -134 -135 0
-6 60 -7 136 137 0
-6 60 -7 136 -137 0
-6 60 -7 -136 137 0
-6 60 -7 -136 -137 0
7 61 8 138 139 0
7 61 8 138 -139 0
7 61 8 -138 139 0
7 61 8 -138 -139 0
-7 -61 8 140 141 0
-7 -61 8 140 -141 0
-7 -61 8 -140 141 0
-7 -61 8 -140 -141 0
7 -61 -8 142 143 0
7 -61 -8 142 -143 0
7 -61 -8 -142 143 0
7 -61 -8 -142 -143 0
-7 61 -8 144 145 0
-7 61 -8 144 -145 0
-7 61 -8 -144 145 0
-7 61 -8 -144 -145 0
8 62 9 146 147 0
8 62 9 146 -147 0
8 62 9 -146 147 0
8 62 9 -146 -147 0
-8 -62 9 148 149 0
-8 -62 9 148 -149 0
-8 -62 9 -148 149 0
-8 -62 9 -148 -149 0
8 -62 -9 150 151 0
8 -62 -9 150 -151 0
8 -62 -9 -150 151 0
8 -62 -9 -150 -151 0
-8 62 -9 152 153 0
-8 62 -9 152 -153 0
-8 62 -9 -152 153 0
-8 62 -9 -152 -153 0
9 63 10 154 155 0
9 63 10 154 -155 0
9 63 10 -154 155 0
9 63 10 -154 -155 0
-9 -63 10 156 157 0
-9 -63 10 156 -157 0
-9 -63 10 -156 157 0
-9 -63 10 -156 -157 0
9 -63 -10 158 159 0
9 -63 -10 158 -159 0
9 -63 -10 -158 159 0
9 -63 -10 -158 -159 0
-9 63 -10 160 161 0
-9 63 -10 160 -161 0
-9 63 -10 -160 161 0
-9 63 -10 -160 -161 0
10 64 11 162 163 0
10 64 11 162 -163 0
10 64 11 -162 163 0
10 64 11 -162 -163 0
-10 -64 11 164 165 0
-10 -64 11 164 -165 0
-10 -64 11 -164 165 0
-10 -64 11 -164 -165 0
10 -64 -11 166 167 0
10 -64 -11 166 -167 0
10 -64 -11 -166 167 0
10 -64 -11 -166 -167 0
-10 64 -11 168 169 0
-10 64 -11 168 -169 0
-10 64 -11 -168 169 0
-10 64 -11 -168 -169 0
11 65 12 170 171 0
11 65 12 170 -171 0
11 65 12 -170 171 0
11 65 12 -170 -171 0
-11 -65 12 172 173 0
-11 -65 12 172 -173 0
-11 -65 12 -172 173 0
-11 -65 12 -172 -173 0
11 -65 -12 174 175 0
11 -65 -12 174 -175 0
11 -65 -12 -174 175 0
11 -65 -12 -174 -175 0
-11 65 -12 176 177 0
-11 65 -12 176 -177 0
-11 65 -12 -176 177 0
-11 65 -12 -176 -177 0
12 66 13 178 179 0
12 66 13 178 -179 0
12 66 13 -178 179 0
12 66 13 -178 -179 0
-12 -66 13 180 181 0
-12 -66 13 180 -181 0
-12 -66 13 -180 181 0
-12 -66 13 -180 -181 0
12 -66 -13 182 183 0
12 -66 -13 182 -183 0
12 -66 -13 -182 183 0
12 -66 -13 -182 -183 0
-12 66 -13 184 185 0
-12 66 -13 184 -185 0
-12 66 -13 -184 185 0
-12 66 -13 -184 -185 0
13 67 14 186 187 0
13 67 14 186 -187 0
13 67 14 -186 187 0
13 67 14 -186 -187 0
-13 -67 14 188 189 0
-13 -67 14 188 -189 0
-13 -67 14 -188 189 0
-13 -67 14 -188 -189 0
13 -67 -14 190 191 0
13 -67 -14 190 -191 0
13 -67 -14 -190 191 0
13 -67 -14 -190 -191 0
-13 67 -14 192 193 0
-13 67 -14 192 -193 0
-13 67 -14 -192 193 0
-13 67 -14 -192 -193 0
14 68 15 194 195 0
14 68 15 194 -195 0
14 68 15 -194 195 0
14 68 15 -194 -195 0
-14 -68 15 196 197 0
-14 -68 15 196 -197 0
-14 -68 15 -196 197 0
-14 -68 15 -196 -197 0
14 -68 -15 198 199 0
14 -68 -15 198 -199 0
14 -68 -15 -198 199 0
14 -68 -15 -198 -199 0
-14 68 -15 200 201 0
-14 68 -15 200 -201 0
-14 68 -15 -200 201 0
-14 68 -15 -200 -201 0
15 69 16 202 203 0
15 69 16 202 -203 0
15 69 16 -202 203 0
15 69 16 -202 -203 0
-15 -69 16 204 205 0
-15 -69 16 204 -205 0
-15 -69 16 -204 205 0
-15 -69 16 -204 -205 0
15 -69 -16 206 207 0
15 -69 -16 206 -207 0
15 -69 -16 -206 207 0
15 -69 -16 -206 -207 0
-15 69 -16 208 209 0
-15 69 -16 208 -209 0
-15 69 -16 -208 209 0
-15 69 -16 -208 -209 0
16 70 17 210 211 0
16 70 17 210 -211 0
16 70 17 -210 211 0
16 70 17 -210 -211 0
-16 -70 17 212 213 0
-16 -70 17 212 -213 0
-16 -70 17 -212 213 0
-16 -70 17 -212 -213 0
16 -70 -17 214 215 0
16 -70 -17 214 -215 0
16 -70 -17 -214 215 0
16 -70 -17 -214 -215 0
-16 70 -17 216 217 0
-16 70 -17 216 -217 0
-16 70 -17 -216 217 0
-16 70 -17 -216 -217 0
17 71 18 218 219 0
17 71 18 218 -219 0
17 71 18 -218 219 0
17 71 18 -218 -219 0
-17 -71 18 220 221 0
-17 -71 18 220 -221 0
-17 -71 18 -220 221 0
-17 -71 18 -220 -221 0
17 -71 -18 222 223 0
17 -71 -18 222 -223 0
17 -71 -18 -222 223 0
17 -71 -18 -222 -223 0
-17 71 -18 224 225 0
-17 71 -18 224 -225 0
-17 71 -18 -224 225 0
-17 71 -18 -224 -225 0
18 72 19 226 227 0
18 72 19 226 -227 0
18 72 19 -226 227 0
18 72 19 -226 -227 0
-18 -72 19 228 229 0
-18 -72 19 228 -229 0
-18 -72 19 -228 229 0
-18 -72 19 -228 -229 0
18 -72 -19 230 231 0
18 -72 -19 230 -231 0
18 -72 -19 -230 231 0
18 -72 -19 -230 -231 0
-18 72 -19 232 233 0
-18 72 -19 232 -233 0
-18 72 -19 -232 233 0
-18 72 -19 -232 -233 0
19 73 20 234 235 0
19 73 20 234 -235 0
19 73 20 -234 235 0
19 73 20 -234 -235 0
-19 -73 20 236 237 0
-19 -73 20 236 -237 0
-19 -73 20 -236 237 0
-19 -73 20 -236 -237 0
19 -73 -20 238 239 0
19 -73 -20 238 -239 0
19 -73 -20 -238 239 0
19 -73 -20 -238 -239 0
-19 73 -20 240 241 0
-19 73 -20 240 -241 0
-19 73 -20 -240 241 0
-19 73 -20 -240 -241 0
20 74 21 242 243 0
20 74 21 242 -243 0
20 74 21 -242 243 0
20 74 21 -242 -243 0
-20 -74 21 244 245 0
-20 -74 21 244 -245 0
-20 -74 21 -244 245 0
-20 -74 21 -244 -245 0
20 -74 -21 246 247 0
20 -74 -21 246 -247 0
20 -74 -21 -246 247 0
20 -74 -21 -246 -247 0
-20 74 -21 248 249 0
-20 74 -21 248 -249 0
-20 74 -21 -248 249 0
-20 74 -21 -248 -249 0
21 75 22 250 251 0
21 75 22 250 -251 0
21 75 22 -250 251 0
21 75 22 -250 -251 0
-21 -75 22 252 253 0
-21 -75 22 252 -253 0
-21 -75 22 -252 253 0
-21 -75 22 -252 -253 0
21 -75 -22 254 255 0
21 -75 -22 254 -255 0
21 -75 -22 -254 255 0
21 -75 -22 -254 -255 0
-21 75 -22 256 257 0
-21 75 -22 256 -257 0
-21 75 -22 -256 257 0
-21 75 -22 -256 -257 0
22 76 23 258 259 0
22 76 23 258 -259 0
22 76 23 -258 259 0
22 76 23 -258 -259 0
-22 -76 23 260 261 0
-22 -76 23 260 -261 0
-22 -76 23 -260 261 0
-22 -76 23 -260 -261 0
22 -76 -23 262 263 0
22 -76 -23 262 -263 0
22 -76 -23 -262 263 0
22 -76 -23 -262 -263 0
-22 76 -23 264 265 0
-22 76 -23 264 -265 0
-22 76 -23 -264 265 0
-22 76 -23 -264 -265 0
23 77 24 266 267 0
23 77 24 266 -267 0
23 77 24 -266 267 0
23 77 24 -266 -267 0
-23 -77 24 268 269 0
-23 -77 24 268 -269 0
-23 -77 24 -268 269 0
-23 -77 24 -268 -269 0
23 -77 -24 270 271 0
23 -77 -24 270 -271 0
23 -77 -24 -270 271 0
23 -77 -24 -270 -271 0
-23 77 -24 272 273 0
-23 77 -24 272 -273 0
-23 77 -24 -272 273 0
-23 77 -24 -272 -273 0
24 78 25 274 275 0
24 78 25 274 -275 0
24 78 25 -274 275 0
24 78 25 -274 -275 0
-24 -78 25 276 277 0
-24 -78 25 276 -277 0
-24 -78 25 -276 277 0
-24 -78 25 -276 -277 0
24 -78 -25 278 279 0
24 -78 -25 278 -279 0
24 -78 -25 -278 279 0
24 -78 -25 -278 -279 0
-24 78 -25 280 281 0
-24 78 -25 280 -281 0
-24 78 -25 -280 281 0
-24 78 -25 -280 -281 0
25 79 26 282 283 0
25 79 26 282 -283 0
25 79 26 -282 283 0
25 79 26 -282 -283 0
-25 -79 26 284 285 0
-25 -79 26 284 -285 0
-25 -79 26 -284 285 0
-25 -79 26 -284 -285 0
25 -79 -26 286 287 0
25 -79 -26 286 -287 0
25 -79 -26 -286 287 0
25 -79 -26 -286 -287 0
-25 79 -26 288 289 0
-25 79 -26 288 -289 0
-25 79 -26 -288 289 0
-25 79 -26 -288 -289 0
26 80 81 290 291 0
26 80 81 290 -291 0
26 80 81 -290 291 0
26 80 81 -290 -291 0
-26 -80 81 292 293 0
-26 -80 81 292 -293 0
-26 -80 81 -292 293 0
-26 -80 81 -292 -293 0
26 -80 -81 294 295 0
26 -80 -81 294 -295 0
26 -80 -81 -294 295 0
26 -80 -81 -294 -295 0
-26 80 -81 296 297 0
-26 80 -81 296 -297 0
-26 80 -81 -296 297 0
-26 80 -81 -296 -297 0
27 80 81 298 299 0
27 80 81 298 -299 0
27 80 81 -298 299 0
27 80 81 -298 -299 0
-27 -80 81 300 301 0
-27 -80 81 300 -301 0
-27 -80 81 -300 301 0
-27 -80 81 -300 -301 0
27 -80 -81 302 303 0
27 -80 -81 302 -303 0
27 -80 -81 -302 303 0
27 -80 -81 -302 -303 0
-27 80 -81 304 305 0
-27 80 -81 304 -305 0
-27 80 -81 -304 305 0
-27 80 -81 -304 -305 0
28 79 27 306 307 0
28 79 27 306 -307 0
28 79 27 -306 307 0
28 79 27 -306 -307 0
-28 -79 27 308 309 0
-28 -79 27 308 -309 0
-28 -79 27 -308 309 0
-28 -79 27 -308 -309 0
28 -79 -27 310 311 0
28 -79 -27 310 -311 0
28 -79 -27 -310 311 0
28 -79 -27 -310 -311 0
-28 79 -27 312 313 0
-28 79 -27 312 -313 0
-28 79 -27 -312 313 0
-28 79 -27 -312 -313 0
29 78 28 314 315 0
29 78 28 314 -315 0
29 78 28 -314 315 0
29 78 28 -314 -315 0
-29 -78 28 316 317 0
-29 -78 28 316 -317 0
-29 -78 28 -316 317 0
-29 -78 28 -316 -317 0
29 -78 -28 318 319 0
29 -78 -28 318 -319 0
29 -78 -28 -318 319 0
29 -78 -28 -318 -319 0
-29 78 -28 320 321 0
-29 78 -28 320 -321 0
-29 78 -28 -320 321 0
-29 78 -28 -320 -321 0
30 77 29 322 323 0
30 77 29 322 -323 0
30 77 29 -322 323 0
30 77 29 -322 -323 0
-30 -77 29 324 325 0
-30 -77 29 324 -325 0
-30 -77 29 -324 325 0
-30 -77 29 -324 -325 0
30 -77 -29 326 327 0
30 -77 -29 326 -327 0
30 -77 -29 -326 327 0
30 -77 -29 -326 -327 0
-30 77 -29 328 329 0
-30 77 -29 328 -329 0
-30 77 -29 -328 329 0
-30 77 -29 -328 -329 0
31 76 30 330 331 0
31 76 30 330 -331 0
31 76 30 -330 331 0
31 76 30 -330 -331 0
-31 -76 30 332 333 0
-31 -76 30 332 -333 0
-31 -76 30 -332 333 0
-31 -76 30 -332 -333 0
31 -76 -30 334 335 0
31 -76 -30 334 -335 0
31 -76 -30 -334 335 0
31 -76 -30 -334 -335 0
-31 76 -30 336 337 0
-31 76 -30 336 -337 0
-31 76 -30 -336 337 0
-31 76 -30 -336 -337 0
32 75 31 338 339 0
32 75 31 338 -339 0
32 75 31 -338 339 0
32 75 31 -338 -339 0
-32 -75 31 340 341 0
-32 -75 31 340 -341 0
-32 -75 31 -340 341 0
-32 -75 31 -340 -341 0
32 -75 -31 342 343 0
32 -75 -31 342 -343 0
32 -75 -31 -342 343 0
32 -75 -31 -342 -343 0
-32 75 -31 344 345 0
-32 75 -31 344 -345 0
-32 75 -31 -344 345 0
-32 75 -31 -344 -345 0
33 74 32 346 347 0
33 74 32 346 -347 0
33 74 32 -346 347 0
33 74 32 -346 -347 0
-33 -74 32 348 349 0
-33 -74 32 348 -349 0
-33 -74 32 -348 349 0
-33 -74 32 -348 -349 0
33 -74 -32 350 351 0
33 -74 -32 350 -351 0
33 -74 -32 -350 351 0
33 -74 -32 -350 -351 0
-33 74 -32 352 353 0
-33 74 -32 352 -353 0
-33 74 -32 -352 353 0
-33 74 -32 -352 -353 0
34 73 33 354 355 0
34 73 33 354 -355 0
34 73 33 -354 355 0
34 73 33 -354 -355 0
-34 -73 33 356 357 0
-34 -73 33 356 -357 0
-34 -73 33 -356 357 0
-34 -73 33 -356 -357 0
34 -73 -33 358 359 0
34 -73 -33 358 -359 0
34 -73 -33 -358 359 0
34 -73 -33 -358 -359 0
-34 73 -33 360 361 0
-34 73 -33 360 -361 0
-34 73 -33 -360 361 0
-34 73 -33 -360 -361 0
35 72 34 362 363 0
35 72 34 362 -363 0
35 72 34 -362 363 0
35 72 34 -362 -363 0
-35 -72 34 364 365 0
-35 -72 34 364 -365 0
-35 -72 34 -364 365 0
-35 -72 34 -364 -365 0
35 -72 -34 366 367 0
35 -72 -34 366 -367 0
35 -72 -34 -366 367 0
35 -72 -34 -366 -367 0
-35 72 -34 368 369 0
-35 72 -34 368 -369 0
-35 72 -34 -368 369 0
-35 72 -34 -368 -369 0
36 71 35 370 371 0
36 71 35 370 -371 0
36 71 35 -370 371 0
36 71 35 -370 -371 0
-36 -71 35 372 373 0
-36 -71 35 372 -373 0
-36 -71 35 -372 373 0
-36 -71 35 -372 -373 0
36 -71 -35 374 375 0
36 -71 -35 374 -375 0
36 -71 -35 -374 375 0
36 -71 -35 -374 -375 0
-36 71 -35 376 377 0
-36 71 -35 376 -377 0
-36 71 -35 -376 377 0
-36 71 -35 -376 -377 0
37 70 36 378 379 0
37 70 36 378 -379 0
37 70 36 -378 379 0
37 70 36 -378 -379 0
-37 -70 36 380 381 0
-37 -70 36 380 -381 0
-37 -70 36 -380 381 0
-37 -70 36 -380 -381 0
37 -70 -36 382 383 0
37 -70 -36 382 -383 0
37 -70 -36 -382 383 0
37 -70 -36 -382 -383 0
-37 70 -36 384 385 0
-37 70 -36 384 -385 0
-37 70 -36 -384 385 0
-37 70 -36 -384 -385 0
38 69 37 386 387 0
38 69 37 386 -387 0
38 69 37 -386 387 0
38 69 37 -386 -387 0
-38 -69 37 388 389 0
-38 -69 37 388 -389 0
-38 -69 37 -388 389 0
-38 -69 37 -388 -389 0
38 -69 -37 390 391 0
38 -69 -37 390 -391 0
38 -69 -37 -390 391 0
38 -69 -37 -390 -391 0
-38 69 -37 392 393 0
-38 69 -37 392 -393 0
-38 69 -37 -392 393 0
-38 69 -37 -392 -393 0
39 68 38 394 395 0
39 68 38 394 -395 0
39 68 38 -394 395 0
39 68 38 -394 -395 0
-39 -68 38 396 397 0
-39 -68 38 396 -397 0
-39 -68 38 -396 397 0
-39 -68 38 -396 -397 0
39 -68 -38 398 399 0
39 -68 -38 398 -399 0
39 -68 -38 -398 399 0
39 -68 -38 -398 -399 0
-39 68 -38 400 401 0
-39 68 -38 400 -401 0
-39 68 -38 -400 401 0
-39 68 -38 -400 -401 0
40 67 39 402 403 0
40 67 39 402 -403 0
40 67 39 -402 403 0
40 67 39 -402 -403 0
-40 -67 39 404 405 0
-40 -67 39 404 -405 0
-40 -67 39 -404 405 0
-40 -67 39 -404 -405 0
40 -67 -39 406 407 0
40 -67 -39 406 -407 0
40 -67 -39 -406 407 0
40 -67 -39 -406 -407 0
-40 67 -39 408 409 0
-40 67 -39 408 -409 0
-40 67 -39 -408 409 0
-40 67 -39 -408 -409 0
41 66 40 410 411 0
41 66 40 410 -411 0
41 66 40 -410 411 0
41 66 40 -410 -411 0
-41 -66 40 412 413 0
-41 -66 40 412 -413 0
-41 -66 40 -412 413 0
-41 -66 40 -412 -413 0
41 -66 -40 414 415 0
41 -66 -40 414 -415 0
41 -66 -40 -414 415 0
41 -66 -40 -414 -415 0
-41 66 -40 416 417 0
-41 66 -40 416 -417 0
-41 66 -40 -416 417 0
-41 66 -40 -416 -417 0
42 65 41 418 419 0
42 65 41 418 -419 0
42 65 41 -418 419 0
42 65 41 -418 -419 0
-42 -65 41 420 421 0
-42 -65 41 420 -421 0
-42 -65 41 -420 421 0
-42 -65 41 -420 -421 0
42 -65 -41 422 423 0
42 -65 -41 422 -423 0
42 -65 -41 -422 423 0
42 -65 -41 -422 -423 0
-42 65 -41 424 425 0
-42 65 -41 424 -425 0
-42 65 -41 -424 425 0
-42 65 -41 -424 -425 0
43 64 42 426 427 0
43 64 42 426 -427 0
43 64 42 -426 427 0
43 64 42 -426 -427 0
-43 -64 42 428 429 0
-43 -64 42 428 -429 0
-43 -64 42 -428 429 0
-43 -64 42 -428 -429 0
43 -64 -42 430 431 0
43 -64 -42 430 -431 0
43 -64 -42 -430 431 0
43 -64 -42 -430 -431 0
-43 64 -42 432 433 0
-43 64 -42 432 -433 0
-43 64 -42 -432 433 0
-43 64 -42 -432 -433 0
44 63 43 434 435 0
44 63 43 434 -435 0
44 63 43 -434 435 0
44 63 43 -434 -435 0
-44 -63 43 436 437 0
-44 -63 43 436 -437 0
-44 -63 43 -436 437 0
-44 -63 43 -436 -437 0
44 -63 -43 438 439 0
44 -63 -43 438 -439 0
44 -63 -43 -438 439 0
44 -63 -43 -438 -439 0
-44 63 -43 440 441 0
-44 63 -43 440 -441 0
-44 63 -43 -440 441 0
-44 63 -43 -440 -441 0
45 62 44 442 443 0
45 62 44 442 -443 0
45 62 44 -442 443 0
45 62 44 -442 -443 0
-45 -62 44 444 445 0
-45 -62 44 444 -445 0
-45 -62 44 -444 445 0
-45 -62 44 -444 -445 0
45 -62 -44 446 447 0
45 -62 -44 446 -447 0
45 -62 -44 -446 447 0
45 -62 -44 -446 -447 0
-45 62 -44 448 449 0
-45 62 -44 448 -449 0
-45 62 -44 -448 449 0
-45 62 -44 -448 -449 0
46 61 45 450 451 0
46 61 45 450 -451 0
46 61 45 -450 451 0
46 61 45 -450 -451 0
-46 -61 45 452 453 0
-46 -61 45 452 -453 0
-46 -61 45 -452 453 0
-46 -61 45 -452 -453 0
46 -61 -45 454 455 0
46 -61 -45 454 -455 0
46 -61 -45 -454 455 0
46 -61 -45 -454 -455 0
-46 61 -45 456 457 0
-46 61 -45 456 -457 0
-46 61 -45 -456 457 0
-46 61 -45 -456 -457 0
47 60 46 458 459 0
47 60 46 458 -459 0
47 60 46 -458 459 0
47 60 46 -458 -459 0
-47 -60 46 460 461 0
-47 -60 46 460 -461 0
-47 -60 46 -460 461 0
-47 -60 46 -460 -461 0
47 -60 -46 462 463 0
47 -60 -46 462 -463 0
47 -60 -46 -462 463 0
47 -60 -46 -462 -463 0
-47 60 -46 464 465 0
-47 60 -46 464 -465 0
-47 60 -46 -464 465 0
-47 60 -46 -464 -465 0
48 59 47 466 467 0
48 59 47 466 -467 0
48 59 47 -466 467 0
48 59 47 -466 -467 0
-48 -59 47 468 469 0
-48 -59 47 468 -469 0
-48 -59 47 -468 469 0
-48 -59 47 -468 -469 0
48 -59 -47 470 471 0
48 -59 -47 470 -471 0
48 -59 -47 -470 471 0
48 -59 -47 -470 -471 0
-48 59 -47 472 473 0
-48 59 -47 472 -473 0
-48 59 -47 -472 473 0
-48 59 -47 -472 -473 0
49 58 48 474 475 0
49 58 48 474 -475 0
49 58 48 -474 475 0
49 58 48 -474 -475 0
-49 -58 48 476 477 0
-49 -58 48 476 -477 0
-49 -58 48 -476 477 0
-49 -58 48 -476 -477 0
49 -58 -48 478 479 0
49 -58 -48 478 -479 0
49 -58 -48 -478 479 0
49 -58 -48 -478 -479 0
-49 58 -48 480 481 0
-49 58 -48 480 -481 0
-49 58 -48 -480 481 0
-49 58 -48 -480 -481 0
50 57 49 482 483 0
50 57 49 482 -483 0
50 57 49 -482 483 0
50 57 49 -482 -483 0
-50 -57 49 484 485 0
-50 -57 49 484 -485 0
-50 -57 49 -484 485 0
-50 -57 49 -484 -485 0
50 -57 -49 486 487 0
50 -57 -49 486 -487 0
50 -57 -49 -486 487 0
50 -57 -49 -486 -487 0
-50 57 -49 488 489 0
-50 57 -49 488 -489 0
-50 57 -49 -488 489 0
-50 57 -49 -488 -489 0
51 56 50 490 491 0
51 56 50 490 -491 0
51 56 50 -490 491 0
51 56 50 -490 -491 0
-51 -56 50 492 493 0
-51 -56 50 492 -493 0
-51 -56 50 -492 493 0
-51 -56 50 -492 -493 0
51 -56 -50 494 495 0
51 -56 -50 494 -495 0
51 -56 -50 -494 495 0
51 -56 -50 -494 -495 0
-51 56 -50 496 497 0
-51 56 -50 496 -497 0
-51 56 -50 -496 497 0
-51 56 -50 -496 -497 0
52 55 51 498 499 0
52 55 51 498 -499 0
52 55 51 -498 499 0
52 55 51 -498 -499 0
-52 -55 51 500 501 0
-52 -55 51 500 -501 0
-52 -55 51 -500 501 0
-52 -55 51 -500 -501 0
52 -55 -51 502 503 0
52 -55 -51 502 -503 0
52 -55 -51 -502 503 0
52 -55 -51 -502 -503 0
-52 55 -51 504 505 0
-52 55 -51 504 -505 0
-52 55 -51 -504 505 0
-52 55 -51 -504 -505 0
53 54 -52 506 507 0
53 54 -52 506 -507 0
53 54 -52 -506 507 0
53 54 -52 -506 -507 0
-53 -54 -52 508 509 0
-53 -54 -52 508 -509 0
-53 -54 -52 -508 509 0
-53 -54 -52 -508 -509 0
53 -54 52 510 511 0
53 -54 52 510 -511 0
53 -54 52 -510 511 0
53 -54 52 -510 -511 0
-53 54 52 512 513 0
-53 54 52 512 -513 0
-53 54 52 -512 513 0
-53 54 52 -512 -513 0
